(set-logic ALL)
(set-option :produce-models true)
(declare-sort BoundSet 0)
(declare-sort UnboundSet 0)
(set-option :finite-model-find true)
(declare-fun IsBlack (BoundSet) Bool)
(declare-fun IsSwimming (BoundSet) Bool)
(declare-fun IsInHisMouth (BoundSet) Bool)
(declare-fun IsAsleep (BoundSet) Bool)
(declare-fun IsInGrass (BoundSet) Bool)
(assert (not (=> (exists ((c BoundSet)) (exists ((a BoundSet)) (exists ((b BoundSet)) (and (IsBlack a) (and (IsSwimming b) (IsInHisMouth c)))))) (exists ((e BoundSet)) (exists ((d BoundSet)) (and (IsAsleep d) (IsInGrass e)))))))
(check-sat)
(get-model)